(set-info :smt-lib-version 2.6)
(set-info :category "crafted")
(set-logic QF_FF)
(define-sort FF0 () (_ FiniteField 52435875175126190479447740508185965837690552500527637822603658699938581184513))
(declare-fun return_n0_alt () FF0)
(declare-fun mul_n67_alt () FF0)
(declare-fun mul_n98_alt () FF0)
(declare-fun mul_n75_alt () FF0)
(declare-fun mul_n73_alt () FF0)
(declare-fun mul_n97_alt () FF0)
(declare-fun mul_n76_alt () FF0)
(declare-fun mul_n96_alt () FF0)
(declare-fun mul_n27_alt () FF0)
(declare-fun mul_n78_alt () FF0)
(declare-fun mul_n25_alt () FF0)
(declare-fun mul_n79_alt () FF0)
(declare-fun mul_n77_alt () FF0)
(declare-fun mul_n24_alt () FF0)
(declare-fun mul_n95_alt () FF0)
(declare-fun mul_n83_alt () FF0)
(declare-fun mul_n94_alt () FF0)
(declare-fun mul_n11_alt () FF0)
(declare-fun mul_n87_alt () FF0)
(declare-fun mul_n93_alt () FF0)
(declare-fun mul_n51_alt () FF0)
(declare-fun mul_n52_alt () FF0)
(declare-fun mul_n90_alt () FF0)
(declare-fun mul_n92_alt () FF0)
(declare-fun mul_n91_alt () FF0)
(declare-fun mul_n57_alt () FF0)
(declare-fun h_n7_alt () FF0)
(declare-fun mul_n89_alt () FF0)
(declare-fun a_n10_alt () FF0)
(declare-fun mul_n18_alt () FF0)
(declare-fun mul_n17_alt () FF0)
(declare-fun mul_n28_alt () FF0)
(declare-fun mul_n88_alt () FF0)
(declare-fun mul_n20_alt () FF0)
(declare-fun mul_n21_alt () FF0)
(declare-fun mul_n29_alt () FF0)
(declare-fun f_n1_alt () FF0)
(declare-fun mul_n54_alt () FF0)
(declare-fun mul_n84_alt () FF0)
(declare-fun mul_n86_alt () FF0)
(declare-fun mul_n64_alt () FF0)
(declare-fun mul_n85_alt () FF0)
(declare-fun j_n3_alt () FF0)
(declare-fun mul_n65_alt () FF0)
(declare-fun mul_n80_alt () FF0)
(declare-fun mul_n82_alt () FF0)
(declare-fun mul_n81_alt () FF0)
(declare-fun b_n8_alt () FF0)
(declare-fun g_n9_alt () FF0)
(declare-fun mul_n12_alt () FF0)
(declare-fun mul_n74_alt () FF0)
(declare-fun c_n6_alt () FF0)
(declare-fun mul_n72_alt () FF0)
(declare-fun mul_n58_alt () FF0)
(declare-fun mul_n71_alt () FF0)
(declare-fun mul_n70_alt () FF0)
(declare-fun mul_n69_alt () FF0)
(declare-fun mul_n68_alt () FF0)
(declare-fun mul_n56_alt () FF0)
(declare-fun mul_n53_alt () FF0)
(declare-fun mul_n66_alt () FF0)
(declare-fun mul_n60_alt () FF0)
(declare-fun mul_n63_alt () FF0)
(declare-fun mul_n62_alt () FF0)
(declare-fun mul_n61_alt () FF0)
(declare-fun mul_n23_alt () FF0)
(declare-fun mul_n59_alt () FF0)
(declare-fun mul_n50_alt () FF0)
(declare-fun mul_n30_alt () FF0)
(declare-fun mul_n26_alt () FF0)
(declare-fun mul_n45_alt () FF0)
(declare-fun mul_n55_alt () FF0)
(declare-fun e_n2_alt () FF0)
(declare-fun mul_n49_alt () FF0)
(declare-fun i_n5_alt () FF0)
(declare-fun mul_n48_alt () FF0)
(declare-fun mul_n19_alt () FF0)
(declare-fun mul_n47_alt () FF0)
(declare-fun mul_n46_alt () FF0)
(declare-fun mul_n44_alt () FF0)
(declare-fun mul_n43_alt () FF0)
(declare-fun mul_n42_alt () FF0)
(declare-fun mul_n36_alt () FF0)
(declare-fun mul_n41_alt () FF0)
(declare-fun mul_n31_alt () FF0)
(declare-fun mul_n40_alt () FF0)
(declare-fun mul_n39_alt () FF0)
(declare-fun mul_n38_alt () FF0)
(declare-fun mul_n37_alt () FF0)
(declare-fun d_n4_alt () FF0)
(declare-fun mul_n35_alt () FF0)
(declare-fun mul_n34_alt () FF0)
(declare-fun mul_n33_alt () FF0)
(declare-fun mul_n32_alt () FF0)
(declare-fun mul_n22_alt () FF0)
(declare-fun mul_n16_alt () FF0)
(declare-fun mul_n15_alt () FF0)
(declare-fun mul_n14_alt () FF0)
(declare-fun mul_n13_alt () FF0)
(declare-fun return_n0 () FF0)
(declare-fun mul_n67 () FF0)
(declare-fun mul_n98 () FF0)
(declare-fun mul_n75 () FF0)
(declare-fun mul_n73 () FF0)
(declare-fun mul_n97 () FF0)
(declare-fun mul_n76 () FF0)
(declare-fun mul_n96 () FF0)
(declare-fun mul_n27 () FF0)
(declare-fun mul_n78 () FF0)
(declare-fun mul_n25 () FF0)
(declare-fun mul_n79 () FF0)
(declare-fun mul_n77 () FF0)
(declare-fun mul_n24 () FF0)
(declare-fun mul_n95 () FF0)
(declare-fun mul_n83 () FF0)
(declare-fun mul_n94 () FF0)
(declare-fun mul_n11 () FF0)
(declare-fun mul_n87 () FF0)
(declare-fun mul_n93 () FF0)
(declare-fun mul_n51 () FF0)
(declare-fun mul_n52 () FF0)
(declare-fun mul_n90 () FF0)
(declare-fun mul_n92 () FF0)
(declare-fun mul_n91 () FF0)
(declare-fun mul_n57 () FF0)
(declare-fun h_n7 () FF0)
(declare-fun mul_n89 () FF0)
(declare-fun a_n10 () FF0)
(declare-fun mul_n18 () FF0)
(declare-fun mul_n17 () FF0)
(declare-fun mul_n28 () FF0)
(declare-fun mul_n88 () FF0)
(declare-fun mul_n20 () FF0)
(declare-fun mul_n21 () FF0)
(declare-fun mul_n29 () FF0)
(declare-fun f_n1 () FF0)
(declare-fun mul_n54 () FF0)
(declare-fun mul_n84 () FF0)
(declare-fun mul_n86 () FF0)
(declare-fun mul_n64 () FF0)
(declare-fun mul_n85 () FF0)
(declare-fun j_n3 () FF0)
(declare-fun mul_n65 () FF0)
(declare-fun mul_n80 () FF0)
(declare-fun mul_n82 () FF0)
(declare-fun mul_n81 () FF0)
(declare-fun b_n8 () FF0)
(declare-fun g_n9 () FF0)
(declare-fun mul_n12 () FF0)
(declare-fun mul_n74 () FF0)
(declare-fun c_n6 () FF0)
(declare-fun mul_n72 () FF0)
(declare-fun mul_n58 () FF0)
(declare-fun mul_n71 () FF0)
(declare-fun mul_n70 () FF0)
(declare-fun mul_n69 () FF0)
(declare-fun mul_n68 () FF0)
(declare-fun mul_n56 () FF0)
(declare-fun mul_n53 () FF0)
(declare-fun mul_n66 () FF0)
(declare-fun mul_n60 () FF0)
(declare-fun mul_n63 () FF0)
(declare-fun mul_n62 () FF0)
(declare-fun mul_n61 () FF0)
(declare-fun mul_n23 () FF0)
(declare-fun mul_n59 () FF0)
(declare-fun mul_n50 () FF0)
(declare-fun mul_n30 () FF0)
(declare-fun mul_n26 () FF0)
(declare-fun mul_n45 () FF0)
(declare-fun mul_n55 () FF0)
(declare-fun e_n2 () FF0)
(declare-fun mul_n49 () FF0)
(declare-fun i_n5 () FF0)
(declare-fun mul_n48 () FF0)
(declare-fun mul_n19 () FF0)
(declare-fun mul_n47 () FF0)
(declare-fun mul_n46 () FF0)
(declare-fun mul_n44 () FF0)
(declare-fun mul_n43 () FF0)
(declare-fun mul_n42 () FF0)
(declare-fun mul_n36 () FF0)
(declare-fun mul_n41 () FF0)
(declare-fun mul_n31 () FF0)
(declare-fun mul_n40 () FF0)
(declare-fun mul_n39 () FF0)
(declare-fun mul_n38 () FF0)
(declare-fun mul_n37 () FF0)
(declare-fun d_n4 () FF0)
(declare-fun mul_n35 () FF0)
(declare-fun mul_n34 () FF0)
(declare-fun mul_n33 () FF0)
(declare-fun mul_n32 () FF0)
(declare-fun mul_n22 () FF0)
(declare-fun mul_n16 () FF0)
(declare-fun mul_n15 () FF0)
(declare-fun mul_n14 () FF0)
(declare-fun mul_n13 () FF0)
(assert 
  (let ((let0 (as ff1 FF0)))
  (let ((let1 (as ff52435875175126190479447740508185965837690552500527637822603658699938581184512 FF0)))
  (let ((let2 return_n0_alt))
  (let ((let3 (ff.mul let2 let1)))
  (let ((let4 (ff.add let3 let0)))
  (let ((let5 mul_n67_alt))
  (let ((let6 mul_n98_alt))
  (let ((let7 (ff.mul let6 let5)))
  (let ((let8 (= let7 let4)))
  (let ((let9 mul_n75_alt))
  (let ((let10 (ff.mul let9 let1)))
  (let ((let11 mul_n73_alt))
  (let ((let12 (ff.add let11 let10)))
  (let ((let13 mul_n97_alt))
  (let ((let14 (ff.mul let13 let12)))
  (let ((let15 (= let14 let6)))
  (let ((let16 mul_n76_alt))
  (let ((let17 mul_n96_alt))
  (let ((let18 (ff.mul let17 let16)))
  (let ((let19 (= let18 let13)))
  (let ((let20 mul_n27_alt))
  (let ((let21 (ff.mul let20 let1)))
  (let ((let22 mul_n78_alt))
  (let ((let23 mul_n25_alt))
  (let ((let24 mul_n79_alt))
  (let ((let25 (ff.mul let24 let1)))
  (let ((let26 mul_n77_alt))
  (let ((let27 mul_n24_alt))
  (let ((let28 (ff.add let27 let26 let25 let23 let22 let21)))
  (let ((let29 mul_n95_alt))
  (let ((let30 (ff.mul let29 let28)))
  (let ((let31 (= let30 let17)))
  (let ((let32 mul_n83_alt))
  (let ((let33 mul_n94_alt))
  (let ((let34 (ff.mul let33 let32)))
  (let ((let35 (= let34 let29)))
  (let ((let36 mul_n11_alt))
  (let ((let37 (ff.mul let36 let1)))
  (let ((let38 mul_n87_alt))
  (let ((let39 (ff.mul let38 let1)))
  (let ((let40 (ff.add let39 let37 let0)))
  (let ((let41 mul_n93_alt))
  (let ((let42 (ff.mul let41 let40)))
  (let ((let43 (= let42 let33)))
  (let ((let44 (as ff2 FF0)))
  (let ((let45 mul_n51_alt))
  (let ((let46 (ff.mul let45 let1)))
  (let ((let47 (ff.mul let23 let1)))
  (let ((let48 mul_n52_alt))
  (let ((let49 (ff.mul let48 let1)))
  (let ((let50 mul_n90_alt))
  (let ((let51 (ff.mul let50 let1)))
  (let ((let52 (ff.add let51 let49 let47 let46 let44)))
  (let ((let53 mul_n92_alt))
  (let ((let54 (ff.mul let53 let1)))
  (let ((let55 (ff.add let54 let0)))
  (let ((let56 (ff.mul let55 let52)))
  (let ((let57 (= let56 let41)))
  (let ((let58 mul_n91_alt))
  (let ((let59 mul_n57_alt))
  (let ((let60 (ff.mul let59 let1)))
  (let ((let61 (ff.add let60 let0)))
  (let ((let62 (ff.mul let61 let58)))
  (let ((let63 (= let62 let53)))
  (let ((let64 h_n7_alt))
  (let ((let65 (ff.mul let64 let1)))
  (let ((let66 (ff.add let65 let0)))
  (let ((let67 (ff.mul let64 let44)))
  (let ((let68 (ff.mul let67 let66)))
  (let ((let69 (= let68 let58)))
  (let ((let70 mul_n89_alt))
  (let ((let71 (ff.add let49 let70 let47 let46 let0)))
  (let ((let72 a_n10_alt))
  (let ((let73 (ff.mul let72 let1)))
  (let ((let74 mul_n18_alt))
  (let ((let75 mul_n17_alt))
  (let ((let76 (ff.add let75 let74 let73)))
  (let ((let77 (ff.mul let76 let71)))
  (let ((let78 (= let77 let50)))
  (let ((let79 mul_n28_alt))
  (let ((let80 mul_n88_alt))
  (let ((let81 (ff.mul let80 let79)))
  (let ((let82 (= let81 let70)))
  (let ((let83 mul_n20_alt))
  (let ((let84 (ff.mul let79 let1)))
  (let ((let85 mul_n21_alt))
  (let ((let86 (ff.mul let85 let1)))
  (let ((let87 mul_n29_alt))
  (let ((let88 (ff.add let87 let86 let84 let83)))
  (let ((let89 f_n1_alt))
  (let ((let90 (ff.mul let89 let1)))
  (let ((let91 (ff.add let90 let0)))
  (let ((let92 (ff.mul let91 let88)))
  (let ((let93 (= let92 let80)))
  (let ((let94 mul_n54_alt))
  (let ((let95 (ff.mul let94 let1)))
  (let ((let96 mul_n84_alt))
  (let ((let97 (ff.add let73 let96 let75 let20 let37 let74 let79 let95 let1)))
  (let ((let98 mul_n86_alt))
  (let ((let99 (ff.mul let98 let97)))
  (let ((let100 (= let99 let38)))
  (let ((let101 mul_n64_alt))
  (let ((let102 mul_n85_alt))
  (let ((let103 (ff.mul let102 let1)))
  (let ((let104 (ff.add let103 let0)))
  (let ((let105 (ff.mul let104 let101)))
  (let ((let106 (= let105 let98)))
  (let ((let107 j_n3_alt))
  (let ((let108 (ff.add let47 let0)))
  (let ((let109 (ff.mul let108 let107)))
  (let ((let110 (= let109 let102)))
  (let ((let111 (ff.add let21 let0)))
  (let ((let112 (ff.mul let94 let44)))
  (let ((let113 (as ff52435875175126190479447740508185965837690552500527637822603658699938581184511 FF0)))
  (let ((let114 (ff.mul let75 let113)))
  (let ((let115 (ff.mul let79 let113)))
  (let ((let116 (ff.mul let72 let44)))
  (let ((let117 (ff.mul let74 let113)))
  (let ((let118 (ff.add let117 let116 let115 let114 let112 let44)))
  (let ((let119 (ff.mul let118 let111)))
  (let ((let120 (= let119 let96)))
  (let ((let121 (ff.mul let107 let1)))
  (let ((let122 mul_n65_alt))
  (let ((let123 (ff.mul let122 let1)))
  (let ((let124 mul_n80_alt))
  (let ((let125 (ff.mul let124 let1)))
  (let ((let126 (ff.add let125 let123 let121 let44)))
  (let ((let127 mul_n82_alt))
  (let ((let128 (ff.mul let127 let126)))
  (let ((let129 (= let128 let32)))
  (let ((let130 mul_n81_alt))
  (let ((let131 (ff.mul let27 let1)))
  (let ((let132 (ff.add let131 let0)))
  (let ((let133 (ff.mul let132 let130)))
  (let ((let134 (= let133 let127)))
  (let ((let135 b_n8_alt))
  (let ((let136 g_n9_alt))
  (let ((let137 (ff.mul let136 let135)))
  (let ((let138 (= let137 let130)))
  (let ((let139 (ff.add let123 let0)))
  (let ((let140 (ff.mul let107 let113)))
  (let ((let141 (ff.add let140 let44)))
  (let ((let142 (ff.mul let141 let139)))
  (let ((let143 (= let142 let124)))
  (let ((let144 (ff.add let27 let26 let23 let1)))
  (let ((let145 (ff.mul let20 let113)))
  (let ((let146 (ff.mul let22 let44)))
  (let ((let147 (ff.add let146 let145 let44)))
  (let ((let148 (ff.mul let147 let144)))
  (let ((let149 (= let148 let24)))
  (let ((let150 (ff.add let20 let107 let1)))
  (let ((let151 mul_n12_alt))
  (let ((let152 (ff.add let151 let90 let37 let0)))
  (let ((let153 (ff.mul let152 let150)))
  (let ((let154 (= let153 let22)))
  (let ((let155 (ff.mul let27 let113)))
  (let ((let156 (ff.add let155 let44)))
  (let ((let157 (ff.mul let156 let108)))
  (let ((let158 (= let157 let26)))
  (let ((let159 (ff.mul let136 let11)))
  (let ((let160 (= let159 let16)))
  (let ((let161 (ff.mul let75 let1)))
  (let ((let162 (ff.add let161 let11)))
  (let ((let163 mul_n74_alt))
  (let ((let164 (ff.mul let163 let1)))
  (let ((let165 (ff.add let164 let0)))
  (let ((let166 (ff.mul let165 let162)))
  (let ((let167 (= let166 let9)))
  (let ((let168 c_n6_alt))
  (let ((let169 (ff.mul let168 let1)))
  (let ((let170 (ff.add let169 let0)))
  (let ((let171 (ff.mul let83 let1)))
  (let ((let172 (ff.add let171 let0)))
  (let ((let173 (ff.mul let172 let170)))
  (let ((let174 (= let173 let163)))
  (let ((let175 (ff.add let49 let47 let46 let44)))
  (let ((let176 mul_n72_alt))
  (let ((let177 (ff.mul let176 let175)))
  (let ((let178 (= let177 let11)))
  (let ((let179 mul_n58_alt))
  (let ((let180 (ff.add let179 let169 let0)))
  (let ((let181 mul_n71_alt))
  (let ((let182 (ff.mul let181 let180)))
  (let ((let183 (= let182 let176)))
  (let ((let184 (ff.add let46 let0)))
  (let ((let185 mul_n70_alt))
  (let ((let186 (ff.mul let185 let184)))
  (let ((let187 (= let186 let181)))
  (let ((let188 mul_n69_alt))
  (let ((let189 (ff.mul let188 let66)))
  (let ((let190 (= let189 let185)))
  (let ((let191 mul_n68_alt))
  (let ((let192 (ff.mul let191 let72)))
  (let ((let193 (= let192 let188)))
  (let ((let194 mul_n56_alt))
  (let ((let195 (ff.mul let194 let1)))
  (let ((let196 (ff.add let195 let0)))
  (let ((let197 (ff.mul let196 let172)))
  (let ((let198 (= let197 let191)))
  (let ((let199 mul_n53_alt))
  (let ((let200 (ff.mul let199 let1)))
  (let ((let201 (ff.add let200 let85 let48 let23 let171 let45)))
  (let ((let202 mul_n66_alt))
  (let ((let203 (ff.add let122 let202 let121)))
  (let ((let204 (ff.mul let203 let201)))
  (let ((let205 (= let204 let5)))
  (let ((let206 (ff.mul let122 let113)))
  (let ((let207 (ff.add let206 let44)))
  (let ((let208 (ff.mul let207 let107)))
  (let ((let209 (= let208 let202)))
  (let ((let210 (ff.mul let179 let1)))
  (let ((let211 (ff.add let210 let168)))
  (let ((let212 (ff.mul let101 let1)))
  (let ((let213 (ff.add let212 let0)))
  (let ((let214 (ff.mul let213 let211)))
  (let ((let215 (= let214 let122)))
  (let ((let216 mul_n60_alt))
  (let ((let217 (ff.mul let216 let1)))
  (let ((let218 (ff.add let217 let0)))
  (let ((let219 mul_n63_alt))
  (let ((let220 (ff.mul let219 let218)))
  (let ((let221 (= let220 let101)))
  (let ((let222 (ff.mul let87 let1)))
  (let ((let223 (ff.add let222 let85 let79 let171 let0)))
  (let ((let224 mul_n62_alt))
  (let ((let225 (ff.mul let224 let223)))
  (let ((let226 (= let225 let219)))
  (let ((let227 (ff.add let37 let0)))
  (let ((let228 mul_n61_alt))
  (let ((let229 (ff.mul let228 let227)))
  (let ((let230 (= let229 let224)))
  (let ((let231 (ff.mul let168 let45)))
  (let ((let232 (= let231 let228)))
  (let ((let233 mul_n23_alt))
  (let ((let234 (ff.mul let233 let1)))
  (let ((let235 (ff.add let234 let0)))
  (let ((let236 mul_n59_alt))
  (let ((let237 (ff.mul let236 let235)))
  (let ((let238 (= let237 let216)))
  (let ((let239 (ff.mul let91 let135)))
  (let ((let240 (= let239 let236)))
  (let ((let241 (ff.add let195 let168)))
  (let ((let242 (ff.mul let61 let241)))
  (let ((let243 (= let242 let179)))
  (let ((let244 mul_n50_alt))
  (let ((let245 mul_n30_alt))
  (let ((let246 (ff.mul let245 let1)))
  (let ((let247 mul_n26_alt))
  (let ((let248 (ff.mul let247 let1)))
  (let ((let249 (ff.add let21 let248 let246 let44)))
  (let ((let250 (ff.mul let249 let244)))
  (let ((let251 (= let250 let59)))
  (let ((let252 mul_n45_alt))
  (let ((let253 (ff.mul let252 let1)))
  (let ((let254 (ff.add let253 let0)))
  (let ((let255 mul_n55_alt))
  (let ((let256 (ff.mul let255 let254)))
  (let ((let257 (= let256 let194)))
  (let ((let258 (ff.add let74 let73 let79 let75 let95)))
  (let ((let259 (ff.mul let75 let258)))
  (let ((let260 (= let259 let255)))
  (let ((let261 (ff.add let171 let85 let0)))
  (let ((let262 (ff.mul let45 let44)))
  (let ((let263 (ff.mul let23 let44)))
  (let ((let264 (ff.mul let48 let44)))
  (let ((let265 (ff.add let264 let263 let262 let113)))
  (let ((let266 (ff.mul let265 let261)))
  (let ((let267 (= let266 let199)))
  (let ((let268 (ff.mul let23 let113)))
  (let ((let269 (ff.add let268 let44)))
  (let ((let270 (ff.mul let269 let184)))
  (let ((let271 (= let270 let48)))
  (let ((let272 (ff.mul let152 let244)))
  (let ((let273 (= let272 let45)))
  (let ((let274 e_n2_alt))
  (let ((let275 (ff.mul let274 let1)))
  (let ((let276 (ff.add let275 let0)))
  (let ((let277 mul_n49_alt))
  (let ((let278 (ff.mul let277 let276)))
  (let ((let279 (= let278 let244)))
  (let ((let280 i_n5_alt))
  (let ((let281 (ff.mul let280 let1)))
  (let ((let282 (ff.add let281 let0)))
  (let ((let283 mul_n48_alt))
  (let ((let284 (ff.mul let283 let282)))
  (let ((let285 (= let284 let277)))
  (let ((let286 (ff.mul let151 let1)))
  (let ((let287 mul_n19_alt))
  (let ((let288 (ff.mul let287 let1)))
  (let ((let289 (ff.add let288 let286 let89 let36)))
  (let ((let290 mul_n47_alt))
  (let ((let291 (ff.mul let290 let289)))
  (let ((let292 (= let291 let283)))
  (let ((let293 mul_n46_alt))
  (let ((let294 (ff.mul let293 let233)))
  (let ((let295 (= let294 let290)))
  (let ((let296 (ff.mul let136 let254)))
  (let ((let297 (= let296 let293)))
  (let ((let298 mul_n44_alt))
  (let ((let299 (ff.mul let298 let132)))
  (let ((let300 (= let299 let252)))
  (let ((let301 mul_n43_alt))
  (let ((let302 (ff.mul let301 let108)))
  (let ((let303 (= let302 let298)))
  (let ((let304 mul_n42_alt))
  (let ((let305 (ff.mul let304 let88)))
  (let ((let306 (= let305 let301)))
  (let ((let307 mul_n36_alt))
  (let ((let308 (ff.mul let307 let1)))
  (let ((let309 (ff.add let308 let0)))
  (let ((let310 mul_n41_alt))
  (let ((let311 (ff.mul let310 let309)))
  (let ((let312 (= let311 let304)))
  (let ((let313 mul_n31_alt))
  (let ((let314 mul_n40_alt))
  (let ((let315 (ff.mul let314 let313)))
  (let ((let316 (= let315 let310)))
  (let ((let317 mul_n39_alt))
  (let ((let318 (ff.mul let317 let136)))
  (let ((let319 (= let318 let314)))
  (let ((let320 mul_n38_alt))
  (let ((let321 (ff.mul let320 let23)))
  (let ((let322 (= let321 let317)))
  (let ((let323 mul_n37_alt))
  (let ((let324 (ff.mul let323 let309)))
  (let ((let325 (= let324 let320)))
  (let ((let326 (ff.add let248 let0)))
  (let ((let327 d_n4_alt))
  (let ((let328 (ff.mul let327 let326)))
  (let ((let329 (= let328 let323)))
  (let ((let330 mul_n35_alt))
  (let ((let331 (ff.mul let330 let132)))
  (let ((let332 (= let331 let307)))
  (let ((let333 mul_n34_alt))
  (let ((let334 (ff.mul let333 let289)))
  (let ((let335 (= let334 let330)))
  (let ((let336 mul_n33_alt))
  (let ((let337 (ff.mul let336 let249)))
  (let ((let338 (= let337 let333)))
  (let ((let339 mul_n32_alt))
  (let ((let340 (ff.mul let339 let89)))
  (let ((let341 (= let340 let336)))
  (let ((let342 (ff.mul let313 let1)))
  (let ((let343 (ff.add let342 let0)))
  (let ((let344 (ff.add let83 let86)))
  (let ((let345 (ff.mul let344 let343)))
  (let ((let346 (= let345 let339)))
  (let ((let347 (ff.add let161 let0)))
  (let ((let348 (ff.mul let347 let72)))
  (let ((let349 (= let348 let313)))
  (let ((let350 (ff.add let145 let44)))
  (let ((let351 (ff.mul let350 let326)))
  (let ((let352 (= let351 let245)))
  (let ((let353 (ff.mul let79 let44)))
  (let ((let354 (ff.mul let353 let261)))
  (let ((let355 (= let354 let87)))
  (let ((let356 (ff.mul let135 let1)))
  (let ((let357 (ff.add let356 let0)))
  (let ((let358 (ff.mul let111 let357)))
  (let ((let359 (= let358 let79)))
  (let ((let360 (ff.mul let357 let247)))
  (let ((let361 (= let360 let20)))
  (let ((let362 (ff.mul let27 let276)))
  (let ((let363 (= let362 let247)))
  (let ((let364 (ff.add let286 let89 let36)))
  (let ((let365 (ff.mul let36 let364)))
  (let ((let366 (= let365 let23)))
  (let ((let367 (ff.add let121 let0)))
  (let ((let368 (ff.mul let327 let367)))
  (let ((let369 (= let368 let27)))
  (let ((let370 (ff.mul let74 let1)))
  (let ((let371 (ff.add let161 let370 let72 let0)))
  (let ((let372 mul_n22_alt))
  (let ((let373 (ff.mul let372 let371)))
  (let ((let374 (= let373 let233)))
  (let ((let375 (ff.mul let136 let1)))
  (let ((let376 (ff.add let375 let0)))
  (let ((let377 (ff.mul let376 let376)))
  (let ((let378 (= let377 let372)))
  (let ((let379 (ff.add let83 let274 let1)))
  (let ((let380 (ff.mul let66 let379)))
  (let ((let381 (= let380 let85)))
  (let ((let382 (ff.mul let91 let289)))
  (let ((let383 (= let382 let83)))
  (let ((let384 (ff.add let74 let73 let286 let75 let89 let36 let1)))
  (let ((let385 (ff.mul let280 let384)))
  (let ((let386 (= let385 let287)))
  (let ((let387 (ff.mul let116 let347)))
  (let ((let388 (= let387 let74)))
  (let ((let389 mul_n16_alt))
  (let ((let390 (ff.mul let389 let170)))
  (let ((let391 (= let390 let75)))
  (let ((let392 (ff.add let73 let0)))
  (let ((let393 mul_n15_alt))
  (let ((let394 (ff.mul let393 let392)))
  (let ((let395 (= let394 let389)))
  (let ((let396 mul_n14_alt))
  (let ((let397 (ff.mul let396 let276)))
  (let ((let398 (= let397 let393)))
  (let ((let399 (ff.mul let327 let1)))
  (let ((let400 (ff.add let399 let0)))
  (let ((let401 mul_n13_alt))
  (let ((let402 (ff.mul let401 let400)))
  (let ((let403 (= let402 let396)))
  (let ((let404 (ff.mul let282 let170)))
  (let ((let405 (= let404 let401)))
  (let ((let406 (ff.mul let36 let44)))
  (let ((let407 (ff.mul let406 let89)))
  (let ((let408 (= let407 let151)))
  (let ((let409 (ff.mul let64 let135)))
  (let ((let410 (= let409 let36)))
  (let ((let411 (and let410 let408 let405 let403 let398 let395 let391 let388 let386 let383 let381 let378 let374 let369 let366 let363 let361 let359 let355 let352 let349 let346 let341 let338 let335 let332 let329 let325 let322 let319 let316 let312 let306 let303 let300 let297 let295 let292 let285 let279 let273 let271 let267 let260 let257 let251 let243 let240 let238 let232 let230 let226 let221 let215 let209 let205 let198 let193 let190 let187 let183 let178 let174 let167 let160 let158 let154 let149 let143 let138 let134 let129 let120 let110 let106 let100 let93 let82 let78 let69 let63 let57 let43 let35 let31 let19 let15 let8)))
  (let ((let412 return_n0))
  (let ((let413 (ff.mul let412 let1)))
  (let ((let414 (ff.add let413 let0)))
  (let ((let415 mul_n67))
  (let ((let416 mul_n98))
  (let ((let417 (ff.mul let416 let415)))
  (let ((let418 (= let417 let414)))
  (let ((let419 mul_n75))
  (let ((let420 (ff.mul let419 let1)))
  (let ((let421 mul_n73))
  (let ((let422 (ff.add let421 let420)))
  (let ((let423 mul_n97))
  (let ((let424 (ff.mul let423 let422)))
  (let ((let425 (= let424 let416)))
  (let ((let426 mul_n76))
  (let ((let427 mul_n96))
  (let ((let428 (ff.mul let427 let426)))
  (let ((let429 (= let428 let423)))
  (let ((let430 mul_n27))
  (let ((let431 (ff.mul let430 let1)))
  (let ((let432 mul_n78))
  (let ((let433 mul_n25))
  (let ((let434 mul_n79))
  (let ((let435 (ff.mul let434 let1)))
  (let ((let436 mul_n77))
  (let ((let437 mul_n24))
  (let ((let438 (ff.add let437 let436 let435 let433 let432 let431)))
  (let ((let439 mul_n95))
  (let ((let440 (ff.mul let439 let438)))
  (let ((let441 (= let440 let427)))
  (let ((let442 mul_n83))
  (let ((let443 mul_n94))
  (let ((let444 (ff.mul let443 let442)))
  (let ((let445 (= let444 let439)))
  (let ((let446 mul_n11))
  (let ((let447 (ff.mul let446 let1)))
  (let ((let448 mul_n87))
  (let ((let449 (ff.mul let448 let1)))
  (let ((let450 (ff.add let449 let447 let0)))
  (let ((let451 mul_n93))
  (let ((let452 (ff.mul let451 let450)))
  (let ((let453 (= let452 let443)))
  (let ((let454 mul_n51))
  (let ((let455 (ff.mul let454 let1)))
  (let ((let456 (ff.mul let433 let1)))
  (let ((let457 mul_n52))
  (let ((let458 (ff.mul let457 let1)))
  (let ((let459 mul_n90))
  (let ((let460 (ff.mul let459 let1)))
  (let ((let461 (ff.add let460 let458 let456 let455 let44)))
  (let ((let462 mul_n92))
  (let ((let463 (ff.mul let462 let1)))
  (let ((let464 (ff.add let463 let0)))
  (let ((let465 (ff.mul let464 let461)))
  (let ((let466 (= let465 let451)))
  (let ((let467 mul_n91))
  (let ((let468 mul_n57))
  (let ((let469 (ff.mul let468 let1)))
  (let ((let470 (ff.add let469 let0)))
  (let ((let471 (ff.mul let470 let467)))
  (let ((let472 (= let471 let462)))
  (let ((let473 h_n7))
  (let ((let474 (ff.mul let473 let1)))
  (let ((let475 (ff.add let474 let0)))
  (let ((let476 (ff.mul let473 let44)))
  (let ((let477 (ff.mul let476 let475)))
  (let ((let478 (= let477 let467)))
  (let ((let479 mul_n89))
  (let ((let480 (ff.add let458 let479 let456 let455 let0)))
  (let ((let481 a_n10))
  (let ((let482 (ff.mul let481 let1)))
  (let ((let483 mul_n18))
  (let ((let484 mul_n17))
  (let ((let485 (ff.add let484 let483 let482)))
  (let ((let486 (ff.mul let485 let480)))
  (let ((let487 (= let486 let459)))
  (let ((let488 mul_n28))
  (let ((let489 mul_n88))
  (let ((let490 (ff.mul let489 let488)))
  (let ((let491 (= let490 let479)))
  (let ((let492 mul_n20))
  (let ((let493 (ff.mul let488 let1)))
  (let ((let494 mul_n21))
  (let ((let495 (ff.mul let494 let1)))
  (let ((let496 mul_n29))
  (let ((let497 (ff.add let496 let495 let493 let492)))
  (let ((let498 f_n1))
  (let ((let499 (ff.mul let498 let1)))
  (let ((let500 (ff.add let499 let0)))
  (let ((let501 (ff.mul let500 let497)))
  (let ((let502 (= let501 let489)))
  (let ((let503 mul_n54))
  (let ((let504 (ff.mul let503 let1)))
  (let ((let505 mul_n84))
  (let ((let506 (ff.add let482 let505 let484 let430 let447 let483 let488 let504 let1)))
  (let ((let507 mul_n86))
  (let ((let508 (ff.mul let507 let506)))
  (let ((let509 (= let508 let448)))
  (let ((let510 mul_n64))
  (let ((let511 mul_n85))
  (let ((let512 (ff.mul let511 let1)))
  (let ((let513 (ff.add let512 let0)))
  (let ((let514 (ff.mul let513 let510)))
  (let ((let515 (= let514 let507)))
  (let ((let516 j_n3))
  (let ((let517 (ff.add let456 let0)))
  (let ((let518 (ff.mul let517 let516)))
  (let ((let519 (= let518 let511)))
  (let ((let520 (ff.add let431 let0)))
  (let ((let521 (ff.mul let503 let44)))
  (let ((let522 (ff.mul let484 let113)))
  (let ((let523 (ff.mul let488 let113)))
  (let ((let524 (ff.mul let481 let44)))
  (let ((let525 (ff.mul let483 let113)))
  (let ((let526 (ff.add let525 let524 let523 let522 let521 let44)))
  (let ((let527 (ff.mul let526 let520)))
  (let ((let528 (= let527 let505)))
  (let ((let529 (ff.mul let516 let1)))
  (let ((let530 mul_n65))
  (let ((let531 (ff.mul let530 let1)))
  (let ((let532 mul_n80))
  (let ((let533 (ff.mul let532 let1)))
  (let ((let534 (ff.add let533 let531 let529 let44)))
  (let ((let535 mul_n82))
  (let ((let536 (ff.mul let535 let534)))
  (let ((let537 (= let536 let442)))
  (let ((let538 mul_n81))
  (let ((let539 (ff.mul let437 let1)))
  (let ((let540 (ff.add let539 let0)))
  (let ((let541 (ff.mul let540 let538)))
  (let ((let542 (= let541 let535)))
  (let ((let543 b_n8))
  (let ((let544 g_n9))
  (let ((let545 (ff.mul let544 let543)))
  (let ((let546 (= let545 let538)))
  (let ((let547 (ff.add let531 let0)))
  (let ((let548 (ff.mul let516 let113)))
  (let ((let549 (ff.add let548 let44)))
  (let ((let550 (ff.mul let549 let547)))
  (let ((let551 (= let550 let532)))
  (let ((let552 (ff.add let437 let436 let433 let1)))
  (let ((let553 (ff.mul let430 let113)))
  (let ((let554 (ff.mul let432 let44)))
  (let ((let555 (ff.add let554 let553 let44)))
  (let ((let556 (ff.mul let555 let552)))
  (let ((let557 (= let556 let434)))
  (let ((let558 (ff.add let430 let516 let1)))
  (let ((let559 mul_n12))
  (let ((let560 (ff.add let559 let499 let447 let0)))
  (let ((let561 (ff.mul let560 let558)))
  (let ((let562 (= let561 let432)))
  (let ((let563 (ff.mul let437 let113)))
  (let ((let564 (ff.add let563 let44)))
  (let ((let565 (ff.mul let564 let517)))
  (let ((let566 (= let565 let436)))
  (let ((let567 (ff.mul let544 let421)))
  (let ((let568 (= let567 let426)))
  (let ((let569 (ff.mul let484 let1)))
  (let ((let570 (ff.add let569 let421)))
  (let ((let571 mul_n74))
  (let ((let572 (ff.mul let571 let1)))
  (let ((let573 (ff.add let572 let0)))
  (let ((let574 (ff.mul let573 let570)))
  (let ((let575 (= let574 let419)))
  (let ((let576 c_n6))
  (let ((let577 (ff.mul let576 let1)))
  (let ((let578 (ff.add let577 let0)))
  (let ((let579 (ff.mul let492 let1)))
  (let ((let580 (ff.add let579 let0)))
  (let ((let581 (ff.mul let580 let578)))
  (let ((let582 (= let581 let571)))
  (let ((let583 (ff.add let458 let456 let455 let44)))
  (let ((let584 mul_n72))
  (let ((let585 (ff.mul let584 let583)))
  (let ((let586 (= let585 let421)))
  (let ((let587 mul_n58))
  (let ((let588 (ff.add let587 let577 let0)))
  (let ((let589 mul_n71))
  (let ((let590 (ff.mul let589 let588)))
  (let ((let591 (= let590 let584)))
  (let ((let592 (ff.add let455 let0)))
  (let ((let593 mul_n70))
  (let ((let594 (ff.mul let593 let592)))
  (let ((let595 (= let594 let589)))
  (let ((let596 mul_n69))
  (let ((let597 (ff.mul let596 let475)))
  (let ((let598 (= let597 let593)))
  (let ((let599 mul_n68))
  (let ((let600 (ff.mul let599 let481)))
  (let ((let601 (= let600 let596)))
  (let ((let602 mul_n56))
  (let ((let603 (ff.mul let602 let1)))
  (let ((let604 (ff.add let603 let0)))
  (let ((let605 (ff.mul let604 let580)))
  (let ((let606 (= let605 let599)))
  (let ((let607 mul_n53))
  (let ((let608 (ff.mul let607 let1)))
  (let ((let609 (ff.add let608 let494 let457 let433 let579 let454)))
  (let ((let610 mul_n66))
  (let ((let611 (ff.add let530 let610 let529)))
  (let ((let612 (ff.mul let611 let609)))
  (let ((let613 (= let612 let415)))
  (let ((let614 (ff.mul let530 let113)))
  (let ((let615 (ff.add let614 let44)))
  (let ((let616 (ff.mul let615 let516)))
  (let ((let617 (= let616 let610)))
  (let ((let618 (ff.mul let587 let1)))
  (let ((let619 (ff.add let618 let576)))
  (let ((let620 (ff.mul let510 let1)))
  (let ((let621 (ff.add let620 let0)))
  (let ((let622 (ff.mul let621 let619)))
  (let ((let623 (= let622 let530)))
  (let ((let624 mul_n60))
  (let ((let625 (ff.mul let624 let1)))
  (let ((let626 (ff.add let625 let0)))
  (let ((let627 mul_n63))
  (let ((let628 (ff.mul let627 let626)))
  (let ((let629 (= let628 let510)))
  (let ((let630 (ff.mul let496 let1)))
  (let ((let631 (ff.add let630 let494 let488 let579 let0)))
  (let ((let632 mul_n62))
  (let ((let633 (ff.mul let632 let631)))
  (let ((let634 (= let633 let627)))
  (let ((let635 (ff.add let447 let0)))
  (let ((let636 mul_n61))
  (let ((let637 (ff.mul let636 let635)))
  (let ((let638 (= let637 let632)))
  (let ((let639 (ff.mul let576 let454)))
  (let ((let640 (= let639 let636)))
  (let ((let641 mul_n23))
  (let ((let642 (ff.mul let641 let1)))
  (let ((let643 (ff.add let642 let0)))
  (let ((let644 mul_n59))
  (let ((let645 (ff.mul let644 let643)))
  (let ((let646 (= let645 let624)))
  (let ((let647 (ff.mul let500 let543)))
  (let ((let648 (= let647 let644)))
  (let ((let649 (ff.add let603 let576)))
  (let ((let650 (ff.mul let470 let649)))
  (let ((let651 (= let650 let587)))
  (let ((let652 mul_n50))
  (let ((let653 mul_n30))
  (let ((let654 (ff.mul let653 let1)))
  (let ((let655 mul_n26))
  (let ((let656 (ff.mul let655 let1)))
  (let ((let657 (ff.add let431 let656 let654 let44)))
  (let ((let658 (ff.mul let657 let652)))
  (let ((let659 (= let658 let468)))
  (let ((let660 mul_n45))
  (let ((let661 (ff.mul let660 let1)))
  (let ((let662 (ff.add let661 let0)))
  (let ((let663 mul_n55))
  (let ((let664 (ff.mul let663 let662)))
  (let ((let665 (= let664 let602)))
  (let ((let666 (ff.add let483 let482 let488 let484 let504)))
  (let ((let667 (ff.mul let484 let666)))
  (let ((let668 (= let667 let663)))
  (let ((let669 (ff.add let579 let494 let0)))
  (let ((let670 (ff.mul let454 let44)))
  (let ((let671 (ff.mul let433 let44)))
  (let ((let672 (ff.mul let457 let44)))
  (let ((let673 (ff.add let672 let671 let670 let113)))
  (let ((let674 (ff.mul let673 let669)))
  (let ((let675 (= let674 let607)))
  (let ((let676 (ff.mul let433 let113)))
  (let ((let677 (ff.add let676 let44)))
  (let ((let678 (ff.mul let677 let592)))
  (let ((let679 (= let678 let457)))
  (let ((let680 (ff.mul let560 let652)))
  (let ((let681 (= let680 let454)))
  (let ((let682 e_n2))
  (let ((let683 (ff.mul let682 let1)))
  (let ((let684 (ff.add let683 let0)))
  (let ((let685 mul_n49))
  (let ((let686 (ff.mul let685 let684)))
  (let ((let687 (= let686 let652)))
  (let ((let688 i_n5))
  (let ((let689 (ff.mul let688 let1)))
  (let ((let690 (ff.add let689 let0)))
  (let ((let691 mul_n48))
  (let ((let692 (ff.mul let691 let690)))
  (let ((let693 (= let692 let685)))
  (let ((let694 (ff.mul let559 let1)))
  (let ((let695 mul_n19))
  (let ((let696 (ff.mul let695 let1)))
  (let ((let697 (ff.add let696 let694 let498 let446)))
  (let ((let698 mul_n47))
  (let ((let699 (ff.mul let698 let697)))
  (let ((let700 (= let699 let691)))
  (let ((let701 mul_n46))
  (let ((let702 (ff.mul let701 let641)))
  (let ((let703 (= let702 let698)))
  (let ((let704 (ff.mul let544 let662)))
  (let ((let705 (= let704 let701)))
  (let ((let706 mul_n44))
  (let ((let707 (ff.mul let706 let540)))
  (let ((let708 (= let707 let660)))
  (let ((let709 mul_n43))
  (let ((let710 (ff.mul let709 let517)))
  (let ((let711 (= let710 let706)))
  (let ((let712 mul_n42))
  (let ((let713 (ff.mul let712 let497)))
  (let ((let714 (= let713 let709)))
  (let ((let715 mul_n36))
  (let ((let716 (ff.mul let715 let1)))
  (let ((let717 (ff.add let716 let0)))
  (let ((let718 mul_n41))
  (let ((let719 (ff.mul let718 let717)))
  (let ((let720 (= let719 let712)))
  (let ((let721 mul_n31))
  (let ((let722 mul_n40))
  (let ((let723 (ff.mul let722 let721)))
  (let ((let724 (= let723 let718)))
  (let ((let725 mul_n39))
  (let ((let726 (ff.mul let725 let544)))
  (let ((let727 (= let726 let722)))
  (let ((let728 mul_n38))
  (let ((let729 (ff.mul let728 let433)))
  (let ((let730 (= let729 let725)))
  (let ((let731 mul_n37))
  (let ((let732 (ff.mul let731 let717)))
  (let ((let733 (= let732 let728)))
  (let ((let734 (ff.add let656 let0)))
  (let ((let735 d_n4))
  (let ((let736 (ff.mul let735 let734)))
  (let ((let737 (= let736 let731)))
  (let ((let738 mul_n35))
  (let ((let739 (ff.mul let738 let540)))
  (let ((let740 (= let739 let715)))
  (let ((let741 mul_n34))
  (let ((let742 (ff.mul let741 let697)))
  (let ((let743 (= let742 let738)))
  (let ((let744 mul_n33))
  (let ((let745 (ff.mul let744 let657)))
  (let ((let746 (= let745 let741)))
  (let ((let747 mul_n32))
  (let ((let748 (ff.mul let747 let498)))
  (let ((let749 (= let748 let744)))
  (let ((let750 (ff.mul let721 let1)))
  (let ((let751 (ff.add let750 let0)))
  (let ((let752 (ff.add let492 let495)))
  (let ((let753 (ff.mul let752 let751)))
  (let ((let754 (= let753 let747)))
  (let ((let755 (ff.add let569 let0)))
  (let ((let756 (ff.mul let755 let481)))
  (let ((let757 (= let756 let721)))
  (let ((let758 (ff.add let553 let44)))
  (let ((let759 (ff.mul let758 let734)))
  (let ((let760 (= let759 let653)))
  (let ((let761 (ff.mul let488 let44)))
  (let ((let762 (ff.mul let761 let669)))
  (let ((let763 (= let762 let496)))
  (let ((let764 (ff.mul let543 let1)))
  (let ((let765 (ff.add let764 let0)))
  (let ((let766 (ff.mul let520 let765)))
  (let ((let767 (= let766 let488)))
  (let ((let768 (ff.mul let765 let655)))
  (let ((let769 (= let768 let430)))
  (let ((let770 (ff.mul let437 let684)))
  (let ((let771 (= let770 let655)))
  (let ((let772 (ff.add let694 let498 let446)))
  (let ((let773 (ff.mul let446 let772)))
  (let ((let774 (= let773 let433)))
  (let ((let775 (ff.add let529 let0)))
  (let ((let776 (ff.mul let735 let775)))
  (let ((let777 (= let776 let437)))
  (let ((let778 (ff.mul let483 let1)))
  (let ((let779 (ff.add let569 let778 let481 let0)))
  (let ((let780 mul_n22))
  (let ((let781 (ff.mul let780 let779)))
  (let ((let782 (= let781 let641)))
  (let ((let783 (ff.mul let544 let1)))
  (let ((let784 (ff.add let783 let0)))
  (let ((let785 (ff.mul let784 let784)))
  (let ((let786 (= let785 let780)))
  (let ((let787 (ff.add let492 let682 let1)))
  (let ((let788 (ff.mul let475 let787)))
  (let ((let789 (= let788 let494)))
  (let ((let790 (ff.mul let500 let697)))
  (let ((let791 (= let790 let492)))
  (let ((let792 (ff.add let483 let482 let694 let484 let498 let446 let1)))
  (let ((let793 (ff.mul let688 let792)))
  (let ((let794 (= let793 let695)))
  (let ((let795 (ff.mul let524 let755)))
  (let ((let796 (= let795 let483)))
  (let ((let797 mul_n16))
  (let ((let798 (ff.mul let797 let578)))
  (let ((let799 (= let798 let484)))
  (let ((let800 (ff.add let482 let0)))
  (let ((let801 mul_n15))
  (let ((let802 (ff.mul let801 let800)))
  (let ((let803 (= let802 let797)))
  (let ((let804 mul_n14))
  (let ((let805 (ff.mul let804 let684)))
  (let ((let806 (= let805 let801)))
  (let ((let807 (ff.mul let735 let1)))
  (let ((let808 (ff.add let807 let0)))
  (let ((let809 mul_n13))
  (let ((let810 (ff.mul let809 let808)))
  (let ((let811 (= let810 let804)))
  (let ((let812 (ff.mul let690 let578)))
  (let ((let813 (= let812 let809)))
  (let ((let814 (ff.mul let446 let44)))
  (let ((let815 (ff.mul let814 let498)))
  (let ((let816 (= let815 let559)))
  (let ((let817 (ff.mul let473 let543)))
  (let ((let818 (= let817 let446)))
  (let ((let819 (and let818 let816 let813 let811 let806 let803 let799 let796 let794 let791 let789 let786 let782 let777 let774 let771 let769 let767 let763 let760 let757 let754 let749 let746 let743 let740 let737 let733 let730 let727 let724 let720 let714 let711 let708 let705 let703 let700 let693 let687 let681 let679 let675 let668 let665 let659 let651 let648 let646 let640 let638 let634 let629 let623 let617 let613 let606 let601 let598 let595 let591 let586 let582 let575 let568 let566 let562 let557 let551 let546 let542 let537 let528 let519 let515 let509 let502 let491 let487 let478 let472 let466 let453 let445 let441 let429 let425 let418)))
  (let ((let820 (= let412 let2)))
  (let ((let821 (not let820)))
  (let ((let822 (= let688 let280)))
  (let ((let823 (= let735 let327)))
  (let ((let824 (= let473 let64)))
  (let ((let825 (= let481 let72)))
  (let ((let826 (= let544 let136)))
  (let ((let827 (= let498 let89)))
  (let ((let828 (= let516 let107)))
  (let ((let829 (= let543 let135)))
  (let ((let830 (= let576 let168)))
  (let ((let831 (= let682 let274)))
  (let ((let832 (and let831 let830 let829 let828 let827 let826 let825 let824 let823 let822)))
  (let ((let833 (and let832 let821 let819 let411)))
  let833
))))))))))))))))))))))))))))))))))))))))))))))))))))))))))))))))))))))))))))))))))))))))))))))))))))))))))))))))))))))))))))))))))))))))))))))))))))))))))))))))))))))))))))))))))))))))))))))))))))))))))))))))))))))))))))))))))))))))))))))))))))))))))))))))))))))))))))))))))))))))))))))))))))))))))))))))))))))))))))))))))))))))))))))))))))))))))))))))))))))))))))))))))))))))))))))))))))))))))))))))))))))))))))))))))))))))))))))))))))))))))))))))))))))))))))))))))))))))))))))))))))))))))))))))))))))))))))))))))))))))))))))))))))))))))))))))))))))))))))))))))))))))))))))))))))))))))))))))))))))))))))))))))))))))))))))))))))))))))))))))))))))))))))))))))))))))))))))))))))))))))))))))))))))))))))))))))))))))))))))))))))))))))))))))))))))))))))))))))))))))))))))))))))))))))))))))))))))))))))))))))))))))))))))))))))))))))))))))))
)
(check-sat)
